c description: Random 3-CNF over 14 variables and 59 clauses
c generator: CNFgen (0.9.2)
c copyright: (C) 2012-2022 Massimo Lauria <massimo.lauria@uniroma1.it>
c url: https://massimolauria.net/cnfgen
c command line: cnfgen --output CNF_4.28/14_bit_59_815.cnf randkcnf 3 14 59
c
p cnf 14 59
3 -7 9 0
-2 -3 -5 0
7 -8 -9 0
1 -3 14 0
3 4 -8 0
-5 7 13 0
4 -6 -13 0
-6 -11 12 0
-2 -3 9 0
-1 4 5 0
4 -6 -9 0
2 -7 -9 0
6 7 -8 0
-3 -6 9 0
-2 -4 -12 0
7 -12 13 0
-2 9 -10 0
-1 3 -9 0
-10 11 13 0
-3 6 -9 0
-6 -9 13 0
1 -5 14 0
-1 -8 9 0
-2 -3 12 0
-4 -6 11 0
8 -10 -14 0
1 -7 -12 0
-1 -12 -13 0
-1 -2 11 0
-1 -9 11 0
-3 -4 11 0
-10 11 -14 0
4 -5 9 0
-1 5 9 0
2 -6 12 0
-1 -6 13 0
3 11 -12 0
-1 2 -8 0
2 7 -13 0
-1 -5 -6 0
1 6 9 0
-2 -4 -11 0
-3 -5 10 0
6 11 -14 0
-1 5 14 0
-1 2 7 0
5 6 9 0
-2 -5 -10 0
-3 5 -11 0
1 -8 -10 0
8 9 13 0
1 -5 -14 0
1 -6 10 0
4 10 -13 0
2 6 9 0
-1 -10 14 0
2 8 -12 0
2 4 6 0
1 5 -8 0
